(set-logic QF_NRA)
(declare-fun skoY () Real)
(declare-fun skoZ () Real)
(declare-fun skoX () Real)
(assert (and (not (<= (* (- 1) (* skoY skoZ)) 0)) (not (<= (* 2 (* skoY skoZ skoX)) 1))))
(set-info :status sat)
(check-sat)
